(set-info :smt-lib-version 2.6)
(set-logic QF_FP)
(set-info :source |Random FP created by PyMPF|)
(set-info :license |https://www.gnu.org/licenses/gpl-3.0.html|)
(set-info :category random)
(set-info :status unsat)
(declare-const x Float32)
(assert (= x (fp #b0 #b00101010 #b00110111010011111011010)))
;; x should be Float32(0x151BA7DA [Rational(5100525, 162259276829213363391578010288128), 0.000000])

(declare-const result Bool)
(assert (= result (fp.isIntegral x)))
(assert (not (not result)))
(check-sat)
(exit)
